Created by jasp.el
  1.0
 8.000000  0.000000  0.000000 
 0.000000  9.000000  0.000000 
 0.000000  0.000000  10.000000 
1 1 
Cartesian
0.000000 0.000000 0.000000
1.100000 0.000000 0.000000
