INCAR created by Atomic Simulation Environment
 ENCUT = 350.000000
 SIGMA = 0.010000
 EDIFF = 1.00e-07
 NSW = 10
 IBRION = 2
 ISIF = 3
