INCAR created by Atomic Simulation Environment
 ENCUT = 350.000000
 PREC = Normal
 NBANDS = 6
